 C Ta 
 1.0000000000000000
     4.4749999999999996    0.0000000000000000    0.0000000000000000
     0.0000000000000000    4.4749999999999996    0.0000000000000000
     0.0000000000000000    0.0000000000000000    4.4749999999999996
   4   4
Cartesian
  0.0000000000000000  0.0000000000000000  2.2374999999999998
  0.0000000000000000  2.2374999999999998  0.0000000000000000
  2.2374999999999998  0.0000000000000000  0.0000000000000000
  2.2374999999999998  2.2374999999999998  2.2374999999999998
  0.0000000000000000  0.0000000000000000  0.0000000000000000
  0.0000000000000000  2.2374999999999998  2.2374999999999998
  2.2374999999999998  0.0000000000000000  2.2374999999999998
  2.2374999999999998  2.2374999999999998  0.0000000000000000
