 C  O 
 1.0000000000000000
     8.0000000000000000    0.0000000000000000    0.0000000000000000
     0.0000000000000000    8.0000000000000000    0.0000000000000000
     0.0000000000000000    0.0000000000000000    8.0000000000000000
   1   2
Cartesian
  4.0000000000000000  4.0000000000000000  4.0000000000000000
  4.0000000000000000  4.0000000000000000  5.1786580000000004
  4.0000000000000000  4.0000000000000000  2.8213420000000000
