 H  C                                   
   1.00000000000000     
    10.0000000000000000    0.0000000000000000    0.0000000000000000
     0.0000000000000000   10.0000000000000000    0.0000000000000000
     0.0000000000000000    0.0000000000000000   10.0000000000000000
   H    C 
     6     2
Direct
  0.5000000000000000  0.6027636777634309  0.6162012444117265
  0.4110074994043357  0.4486181732155726  0.6161982989279082
  0.5889925005956643  0.4486181732155726  0.6161982989279082
  0.5000000000000000  0.3972363222365691  0.3837987555882734
  0.4110074994043357  0.5513818267844275  0.3838017010720919
  0.5889925005956643  0.5513818267844275  0.3838017010720919
  0.5000000000000000  0.5000017191563404  0.5762204271768796
  0.5000000000000000  0.4999982808436596  0.4237795728231203
 
  0.00000000E+00  0.00000000E+00  0.00000000E+00
  0.00000000E+00  0.00000000E+00  0.00000000E+00
  0.00000000E+00  0.00000000E+00  0.00000000E+00
  0.00000000E+00  0.00000000E+00  0.00000000E+00
  0.00000000E+00  0.00000000E+00  0.00000000E+00
  0.00000000E+00  0.00000000E+00  0.00000000E+00
  0.00000000E+00  0.00000000E+00  0.00000000E+00
  0.00000000E+00  0.00000000E+00  0.00000000E+00
