 H  C 
 1.0000000000000000
    10.0000000000000000    0.0000000000000000    0.0000000000000000
     0.0000000000000000   10.0000000000000000    0.0000000000000000
     0.0000000000000000    0.0000000000000000   10.0000000000000000
   6   2
Cartesian
  5.0000000000000000  6.0189570000000003  6.1572290000000001
  4.1175569999999997  4.4905210000000002  6.1572290000000001
  5.8824430000000003  4.4905210000000002  6.1572290000000001
  5.0000000000000000  3.9810430000000001  3.8427709999999999
  4.1175569999999997  5.5094789999999998  3.8427709999999999
  5.8824430000000003  5.5094789999999998  3.8427709999999999
  5.0000000000000000  5.0000000000000000  5.7622090000000004
  5.0000000000000000  5.0000000000000000  4.2377909999999996
