 H  O                                   
   1.00000000000000     
    10.0000000000000000    0.0000000000000000    0.0000000000000000
     0.0000000000000000   10.0000000000000000    0.0000000000000000
     0.0000000000000000    0.0000000000000000   10.0000000000000000
   H    O 
     2     1
Direct
  0.5000000000000000  0.5765976196821956  0.4700512234032294
  0.5000000000000000  0.4234023803178044  0.4700512234032294
  0.5000000000000000  0.5000000000000000  0.5300821031935403
 
  0.00000000E+00  0.00000000E+00  0.00000000E+00
  0.00000000E+00  0.00000000E+00  0.00000000E+00
  0.00000000E+00  0.00000000E+00  0.00000000E+00
