 H  C                                   
   1.00000000000000     
    10.0000000000000000    0.0000000000000000    0.0000000000000000
     0.0000000000000000   10.0000000000000000    0.0000000000000000
     0.0000000000000000    0.0000000000000000   10.0000000000000000
   H    C 
     2     2
Direct
  0.5000000000000000  0.5000000000000000  0.3324987047574526
  0.5000000000000000  0.5000000000000000  0.6675012952425474
  0.5000000000000000  0.5000000000000000  0.5603617976592267
  0.5000000000000000  0.5000000000000000  0.4396382023407732
 
  0.00000000E+00  0.00000000E+00  0.00000000E+00
  0.00000000E+00  0.00000000E+00  0.00000000E+00
  0.00000000E+00  0.00000000E+00  0.00000000E+00
  0.00000000E+00  0.00000000E+00  0.00000000E+00
