 H  C 
 1.0000000000000000
    10.0000000000000000    0.0000000000000000    0.0000000000000000
     0.0000000000000000   10.0000000000000000    0.0000000000000000
     0.0000000000000000    0.0000000000000000   10.0000000000000000
   2   2
Cartesian
  5.0000000000000000  5.0000000000000000  3.3260100000000001
  5.0000000000000000  5.0000000000000000  6.6739899999999999
  5.0000000000000000  5.0000000000000000  5.6080800000000002
  5.0000000000000000  5.0000000000000000  4.3919199999999998
