 H  C                                   
   1.00000000000000     
    10.0000000000000000    0.0000000000000000    0.0000000000000000
     0.0000000000000000   10.0000000000000000    0.0000000000000000
     0.0000000000000000    0.0000000000000000   10.0000000000000000
   H    C 
     6     6
Direct
  0.5000000000000000  0.7492164501239249  0.5000000000000000
  0.7158175337648168  0.6245901742933495  0.5000000000000000
  0.7158175337648168  0.3754098257066505  0.5000000000000000
  0.5000000000000000  0.2507835498760751  0.5000000000000000
  0.2841824662351832  0.3754098257066505  0.5000000000000000
  0.2841824662351832  0.6245901742933495  0.5000000000000000
  0.5000000000000000  0.6397818756248752  0.5000000000000000
  0.6210672689930845  0.5698883531346174  0.5000000000000000
  0.6210672689930845  0.4301116468653826  0.5000000000000000
  0.5000000000000000  0.3602181243751248  0.5000000000000000
  0.3789327310069155  0.4301116468653826  0.5000000000000000
  0.3789327310069155  0.5698883531346174  0.5000000000000000
 
  0.00000000E+00  0.00000000E+00  0.00000000E+00
  0.00000000E+00  0.00000000E+00  0.00000000E+00
  0.00000000E+00  0.00000000E+00  0.00000000E+00
  0.00000000E+00  0.00000000E+00  0.00000000E+00
  0.00000000E+00  0.00000000E+00  0.00000000E+00
  0.00000000E+00  0.00000000E+00  0.00000000E+00
  0.00000000E+00  0.00000000E+00  0.00000000E+00
  0.00000000E+00  0.00000000E+00  0.00000000E+00
  0.00000000E+00  0.00000000E+00  0.00000000E+00
  0.00000000E+00  0.00000000E+00  0.00000000E+00
  0.00000000E+00  0.00000000E+00  0.00000000E+00
  0.00000000E+00  0.00000000E+00  0.00000000E+00
