 H  C 
 1.0000000000000000
    10.0000000000000000    0.0000000000000000    0.0000000000000000
     0.0000000000000000   10.0000000000000000    0.0000000000000000
     0.0000000000000000    0.0000000000000000   10.0000000000000000
   6   6
Cartesian
  5.0000000000000000  7.4823599999999999  5.0000000000000000
  7.1497869999999999  6.2411799999999999  5.0000000000000000
  7.1497869999999999  3.7588200000000001  5.0000000000000000
  5.0000000000000000  2.5176400000000001  5.0000000000000000
  2.8502130000000001  3.7588200000000001  5.0000000000000000
  2.8502130000000001  6.2411799999999999  5.0000000000000000
  5.0000000000000000  6.3952480000000005  5.0000000000000000
  6.2083200000000005  5.6976240000000002  5.0000000000000000
  6.2083200000000005  4.3023759999999998  5.0000000000000000
  5.0000000000000000  3.6047520000000000  5.0000000000000000
  3.7916799999999999  4.3023759999999998  5.0000000000000000
  3.7916799999999999  5.6976240000000002  5.0000000000000000
