INCAR created by Atomic Simulation Environment
 ENCUT = 350.000000
 PREC = Normal
 ISPIN = 2
 NBANDS = 7
 ISMEAR = 0
 NSW = 10
 IBRION = 2
