 C  O 
 1.0000000000000000
    10.0000000000000000    0.0000000000000000    0.0000000000000000
     0.0000000000000000   10.0000000000000000    0.0000000000000000
     0.0000000000000000    0.0000000000000000   10.0000000000000000
   1   1
Cartesian
  5.0000000000000000  5.0000000000000000  4.4248300000000000
  5.0000000000000000  5.0000000000000000  5.5751700000000000
