 H  C                                   
   1.00000000000000     
    10.0000000000000000    0.0000000000000000    0.0000000000000000
     0.0000000000000000   10.0000000000000000    0.0000000000000000
     0.0000000000000000    0.0000000000000000   10.0000000000000000
   H    C 
     4     2
Direct
  0.5000000000000000  0.5931060521320132  0.6242202875239234
  0.5000000000000000  0.4068939478679867  0.6242202875239234
  0.5000000000000000  0.5931060521320132  0.3757797124760766
  0.5000000000000000  0.4068939478679867  0.3757797124760766
  0.5000000000000000  0.5000000000000000  0.5667097759511290
  0.5000000000000000  0.5000000000000000  0.4332902240488711
 
  0.00000000E+00  0.00000000E+00  0.00000000E+00
  0.00000000E+00  0.00000000E+00  0.00000000E+00
  0.00000000E+00  0.00000000E+00  0.00000000E+00
  0.00000000E+00  0.00000000E+00  0.00000000E+00
  0.00000000E+00  0.00000000E+00  0.00000000E+00
  0.00000000E+00  0.00000000E+00  0.00000000E+00
