 H  C 
 1.0000000000000000
    10.0000000000000000    0.0000000000000000    0.0000000000000000
     0.0000000000000000   10.0000000000000000    0.0000000000000000
     0.0000000000000000    0.0000000000000000   10.0000000000000000
   4   2
Cartesian
  5.0000000000000000  5.9228319999999997  6.2376950000000004
  5.0000000000000000  4.0771680000000003  6.2376950000000004
  5.0000000000000000  5.9228319999999997  3.7623050000000000
  5.0000000000000000  4.0771680000000003  3.7623050000000000
  5.0000000000000000  5.0000000000000000  5.6674800000000003
  5.0000000000000000  5.0000000000000000  4.3325199999999997
