 H  C  O  N                             
   1.00000000000000     
    10.0000000000000000    0.0000000000000000    0.0000000000000000
     0.0000000000000000   10.0000000000000000    0.0000000000000000
     0.0000000000000000    0.0000000000000000   10.0000000000000000
   H    C    O    N 
     5     2     1     1
Direct
  0.5727778738365866  0.3415044448262294  0.5065709412450612
  0.3014758604179530  0.5841706204044748  0.4723989555910380
  0.3457041011660922  0.4202323452024262  0.4124390963027944
  0.3387320831312651  0.4522576335103961  0.5877499260269085
  0.6989301942656914  0.4618138508641112  0.5011808243518723
  0.5100984474001995  0.5399858353705924  0.4897367744376516
  0.3647442479593458  0.4962374552147665  0.4899399318746062
  0.5447457678119988  0.6581374684586242  0.4908551807990335
  0.6012994240108624  0.4370548961483803  0.4858897693710292
 
  0.00000000E+00  0.00000000E+00  0.00000000E+00
  0.00000000E+00  0.00000000E+00  0.00000000E+00
  0.00000000E+00  0.00000000E+00  0.00000000E+00
  0.00000000E+00  0.00000000E+00  0.00000000E+00
  0.00000000E+00  0.00000000E+00  0.00000000E+00
  0.00000000E+00  0.00000000E+00  0.00000000E+00
  0.00000000E+00  0.00000000E+00  0.00000000E+00
  0.00000000E+00  0.00000000E+00  0.00000000E+00
  0.00000000E+00  0.00000000E+00  0.00000000E+00
