INCAR created by Atomic Simulation Environment
 ENCUT = 350.000000
 PREC = Normal
 ISPIN = 2
 NBANDS = 26
 ISMEAR = 0
 NSW = 8
 IBRION = 2
