 H  C  O  N 
 1.0000000000000000
    10.0000000000000000    0.0000000000000000    0.0000000000000000
     0.0000000000000000   10.0000000000000000    0.0000000000000000
     0.0000000000000000    0.0000000000000000   10.0000000000000000
   5   2   1   1
Cartesian
  5.7299999999999995  3.4243635000000001  5.0708780000000004
  3.0248189999999999  5.8335344999999998  4.7254590000000007
  3.4612059999999998  4.2093425000000000  4.1292500000000008
  3.3899349999999999  4.5256055000000002  5.8707500000000010
  6.9751810000000001  4.6170385000000005  5.0128020000000006
  5.0992059999999997  5.3984015000000003  4.8966870000000009
  3.6505729999999996  4.9599475000000002  4.9007920000000009
  5.4465940000000002  6.5756364999999999  4.9089700000000009
  6.0075659999999997  4.3700755000000004  4.8520260000000004
