 H  C  O                                
   1.00000000000000     
    10.0000000000000000    0.0000000000000000    0.0000000000000000
     0.0000000000000000   10.0000000000000000    0.0000000000000000
     0.0000000000000000    0.0000000000000000   10.0000000000000000
   H    C    O 
     6     2     1
Direct
  0.2959022305119560  0.5296493532573899  0.5000000000000000
  0.4956888703996967  0.6128323262676472  0.5896636939031075
  0.4956888703996967  0.6128323262676472  0.4103363060968923
  0.7040940689311085  0.5064186707921602  0.5000000000000000
  0.6046829165170506  0.3870016128216090  0.5894384628201761
  0.6046829165170506  0.3870016128216090  0.4105615371798240
  0.6086607256125456  0.4513058169482849  0.5000000000000000
  0.4918861821407929  0.5474544809292236  0.5000000000000000
  0.3715104189701002  0.4687088998944244  0.5000000000000000
 
  0.00000000E+00  0.00000000E+00  0.00000000E+00
  0.00000000E+00  0.00000000E+00  0.00000000E+00
  0.00000000E+00  0.00000000E+00  0.00000000E+00
  0.00000000E+00  0.00000000E+00  0.00000000E+00
  0.00000000E+00  0.00000000E+00  0.00000000E+00
  0.00000000E+00  0.00000000E+00  0.00000000E+00
  0.00000000E+00  0.00000000E+00  0.00000000E+00
  0.00000000E+00  0.00000000E+00  0.00000000E+00
  0.00000000E+00  0.00000000E+00  0.00000000E+00
