 H  C  O 
 1.0000000000000000
    10.0000000000000000    0.0000000000000000    0.0000000000000000
     0.0000000000000000   10.0000000000000000    0.0000000000000000
     0.0000000000000000    0.0000000000000000   10.0000000000000000
   6   2   1
Cartesian
  2.9687430000000008  5.2963879999999994  5.0000000000000000
  4.9579230000000010  6.1223709999999993  5.8869330000000000
  4.9579230000000010  6.1223709999999993  4.1130670000000000
  7.0312570000000001  5.0596629999999996  5.0000000000000000
  6.0439650000000000  3.8776289999999998  5.8858810000000004
  6.0439650000000000  3.8776289999999998  4.1141189999999996
  6.0835470000000003  4.5144810000000000  5.0000000000000000
  4.9153660000000006  5.4743249999999994  5.0000000000000000
  3.7252830000000006  4.6871939999999999  5.0000000000000000
