 N 
 1.0000000000000000
    10.0000000000000000    0.0000000000000000    0.0000000000000000
     0.0000000000000000   10.0000000000000000    0.0000000000000000
     0.0000000000000000    0.0000000000000000   10.0000000000000000
   2
Cartesian
  5.0000000000000000  5.0000000000000000  5.5649899999999999
  5.0000000000000000  5.0000000000000000  4.4350100000000001
