Ta 
 1.0000000000000000
     1.6619999999999999    1.6619999999999999   -1.6619999999999999
    -1.6619999999999999    1.6619999999999999    1.6619999999999999
     1.6619999999999999   -1.6619999999999999    1.6619999999999999
   1
Cartesian
  0.0000000000000000  0.0000000000000000  0.0000000000000000
